NAME          
ROWS
 N  OBJ
 L  c1
 L  c2
COLUMNS
    MARKER    'MARKER'                 'INTORG'
    x[1]      c1        603
    x[1]      c2        829
    x[1]      OBJ       -76
    x[2]      c1        163
    x[2]      c2        475
    x[2]      OBJ       -253
    x[3]      c1        369
    x[3]      c2        133
    x[3]      OBJ       -900
    x[4]      c1        778
    x[4]      c2        712
    x[4]      OBJ       -978
    x[5]      c1        141
    x[5]      c2        706
    x[5]      OBJ       -329
    x[6]      c1        586
    x[6]      c2        848
    x[6]      OBJ       -95
    x[7]      c1        224
    x[7]      c2        73
    x[7]      OBJ       -384
    x[8]      c1        827
    x[8]      c2        897
    x[8]      OBJ       -383
    x[9]      c1        435
    x[9]      c2        535
    x[9]      OBJ       -543
    x[10]     c1        10
    x[10]     c2        625
    x[10]     OBJ       -965
    x[11]     c1        681
    x[11]     c2        376
    x[11]     OBJ       -713
    x[12]     c1        28
    x[12]     c2        872
    x[12]     OBJ       -865
    x[13]     c1        437
    x[13]     c2        484
    x[13]     OBJ       -227
    x[14]     c1        386
    x[14]     c2        388
    x[14]     OBJ       -28
    x[15]     c1        303
    x[15]     c2        896
    x[15]     OBJ       -213
RHS
    rhs       c1        2986
    rhs       c2        4424
RANGES
BOUNDS
 LO bounds    x[1]      0
 PL bounds    x[1]
 LO bounds    x[2]      0
 PL bounds    x[2]
 LO bounds    x[3]      0
 PL bounds    x[3]
 LO bounds    x[4]      0
 PL bounds    x[4]
 LO bounds    x[5]      0
 PL bounds    x[5]
 LO bounds    x[6]      0
 PL bounds    x[6]
 LO bounds    x[7]      0
 PL bounds    x[7]
 LO bounds    x[8]      0
 PL bounds    x[8]
 LO bounds    x[9]      0
 PL bounds    x[9]
 LO bounds    x[10]     0
 PL bounds    x[10]
 LO bounds    x[11]     0
 PL bounds    x[11]
 LO bounds    x[12]     0
 PL bounds    x[12]
 LO bounds    x[13]     0
 PL bounds    x[13]
 LO bounds    x[14]     0
 PL bounds    x[14]
 LO bounds    x[15]     0
 PL bounds    x[15]
ENDATA
